50
120
99
98
93
93
91
88
85
82
80
78
76
70
68
67
66
65
61
61
57
56
56
53
52
52
52
51
48
47
46
44
43
43
43
41
41
41
37
37
36
36
35
33
33
32
31
27
26
22
22
21
